8
0 560 19 572 31 43 133 312
560 0 329 16 475 6 768 445
19 329 0 22 88 497 130 13
572 16 22 0 491 181 540 304
31 475 88 491 0 79 496 274
43 6 497 181 79 0 302 725
133 768 130 540 496 302 0 24
312 445 13 304 274 725 24 0